/* Objective function */
min: +C1 +C2 +C3 +C4 +C5 +C6 +C7 +C8 +C9 +C10 +C11 +C12 +C13 +C14 +C15 +C16 +C17 +C18 +C19 +C20;

/* Constraints */
+C21 +C22 +C23 +C24 +C25 +C26 +C27 +C28 +C29 +C30 +C31 +C32 +C33 +C34 +C35 +C36 +C37 +C38 +C39 +C40 = 1;
+C41 +C42 +C43 +C44 +C45 +C46 +C47 +C48 +C49 +C50 +C51 +C52 +C53 +C54 +C55 +C56 +C57 +C58 +C59 +C60 = 1;
+C61 +C62 +C63 +C64 +C65 +C66 +C67 +C68 +C69 +C70 +C71 +C72 +C73 +C74 +C75 +C76 +C77 +C78 +C79 +C80 = 1;
+C81 +C82 +C83 +C84 +C85 +C86 +C87 +C88 +C89 +C90 +C91 +C92 +C93 +C94 +C95 +C96 +C97 +C98 +C99 +C100 = 1;
+C101 +C102 +C103 +C104 +C105 +C106 +C107 +C108 +C109 +C110 +C111 +C112 +C113 +C114 +C115 +C116 +C117
 +C118 +C119 +C120 = 1;
+C121 +C122 +C123 +C124 +C125 +C126 +C127 +C128 +C129 +C130 +C131 +C132 +C133 +C134 +C135 +C136 +C137
 +C138 +C139 +C140 = 1;
+C141 +C142 +C143 +C144 +C145 +C146 +C147 +C148 +C149 +C150 +C151 +C152 +C153 +C154 +C155 +C156 +C157
 +C158 +C159 +C160 = 1;
+C161 +C162 +C163 +C164 +C165 +C166 +C167 +C168 +C169 +C170 +C171 +C172 +C173 +C174 +C175 +C176 +C177
 +C178 +C179 +C180 = 1;
+C181 +C182 +C183 +C184 +C185 +C186 +C187 +C188 +C189 +C190 +C191 +C192 +C193 +C194 +C195 +C196 +C197
 +C198 +C199 +C200 = 1;
+C201 +C202 +C203 +C204 +C205 +C206 +C207 +C208 +C209 +C210 +C211 +C212 +C213 +C214 +C215 +C216 +C217
 +C218 +C219 +C220 = 1;
+C221 +C222 +C223 +C224 +C225 +C226 +C227 +C228 +C229 +C230 +C231 +C232 +C233 +C234 +C235 +C236 +C237
 +C238 +C239 +C240 = 1;
+C241 +C242 +C243 +C244 +C245 +C246 +C247 +C248 +C249 +C250 +C251 +C252 +C253 +C254 +C255 +C256 +C257
 +C258 +C259 +C260 = 1;
+C261 +C262 +C263 +C264 +C265 +C266 +C267 +C268 +C269 +C270 +C271 +C272 +C273 +C274 +C275 +C276 +C277
 +C278 +C279 +C280 = 1;
+C281 +C282 +C283 +C284 +C285 +C286 +C287 +C288 +C289 +C290 +C291 +C292 +C293 +C294 +C295 +C296 +C297
 +C298 +C299 +C300 = 1;
+C301 +C302 +C303 +C304 +C305 +C306 +C307 +C308 +C309 +C310 +C311 +C312 +C313 +C314 +C315 +C316 +C317
 +C318 +C319 +C320 = 1;
+C321 +C322 +C323 +C324 +C325 +C326 +C327 +C328 +C329 +C330 +C331 +C332 +C333 +C334 +C335 +C336 +C337
 +C338 +C339 +C340 = 1;
+C341 +C342 +C343 +C344 +C345 +C346 +C347 +C348 +C349 +C350 +C351 +C352 +C353 +C354 +C355 +C356 +C357
 +C358 +C359 +C360 = 1;
+C361 +C362 +C363 +C364 +C365 +C366 +C367 +C368 +C369 +C370 +C371 +C372 +C373 +C374 +C375 +C376 +C377
 +C378 +C379 +C380 = 1;
+C381 +C382 +C383 +C384 +C385 +C386 +C387 +C388 +C389 +C390 +C391 +C392 +C393 +C394 +C395 +C396 +C397
 +C398 +C399 +C400 = 1;
+C401 +C402 +C403 +C404 +C405 +C406 +C407 +C408 +C409 +C410 +C411 +C412 +C413 +C414 +C415 +C416 +C417
 +C418 +C419 +C420 = 1;
-10000000 C1 +C21 +C41 +C61 +C81 +C101 +C121 +C141 +C161 +C181 +C201 +C221 +C241 +C261 +C281 +C301 +C321
 +C341 +C361 +C381 +C401 <= 0;
-10000000 C2 +C22 +C42 +C62 +C82 +C102 +C122 +C142 +C162 +C182 +C202 +C222 +C242 +C262 +C282 +C302 +C322
 +C342 +C362 +C382 +C402 <= 0;
-10000000 C3 +C23 +C43 +C63 +C83 +C103 +C123 +C143 +C163 +C183 +C203 +C223 +C243 +C263 +C283 +C303 +C323
 +C343 +C363 +C383 +C403 <= 0;
-10000000 C4 +C24 +C44 +C64 +C84 +C104 +C124 +C144 +C164 +C184 +C204 +C224 +C244 +C264 +C284 +C304 +C324
 +C344 +C364 +C384 +C404 <= 0;
-10000000 C5 +C25 +C45 +C65 +C85 +C105 +C125 +C145 +C165 +C185 +C205 +C225 +C245 +C265 +C285 +C305 +C325
 +C345 +C365 +C385 +C405 <= 0;
-10000000 C6 +C26 +C46 +C66 +C86 +C106 +C126 +C146 +C166 +C186 +C206 +C226 +C246 +C266 +C286 +C306 +C326
 +C346 +C366 +C386 +C406 <= 0;
-10000000 C7 +C27 +C47 +C67 +C87 +C107 +C127 +C147 +C167 +C187 +C207 +C227 +C247 +C267 +C287 +C307 +C327
 +C347 +C367 +C387 +C407 <= 0;
-10000000 C8 +C28 +C48 +C68 +C88 +C108 +C128 +C148 +C168 +C188 +C208 +C228 +C248 +C268 +C288 +C308 +C328
 +C348 +C368 +C388 +C408 <= 0;
-10000000 C9 +C29 +C49 +C69 +C89 +C109 +C129 +C149 +C169 +C189 +C209 +C229 +C249 +C269 +C289 +C309 +C329
 +C349 +C369 +C389 +C409 <= 0;
-10000000 C10 +C30 +C50 +C70 +C90 +C110 +C130 +C150 +C170 +C190 +C210 +C230 +C250 +C270 +C290 +C310 +C330
 +C350 +C370 +C390 +C410 <= 0;
-10000000 C11 +C31 +C51 +C71 +C91 +C111 +C131 +C151 +C171 +C191 +C211 +C231 +C251 +C271 +C291 +C311 +C331
 +C351 +C371 +C391 +C411 <= 0;
-10000000 C12 +C32 +C52 +C72 +C92 +C112 +C132 +C152 +C172 +C192 +C212 +C232 +C252 +C272 +C292 +C312 +C332
 +C352 +C372 +C392 +C412 <= 0;
-10000000 C13 +C33 +C53 +C73 +C93 +C113 +C133 +C153 +C173 +C193 +C213 +C233 +C253 +C273 +C293 +C313 +C333
 +C353 +C373 +C393 +C413 <= 0;
-10000000 C14 +C34 +C54 +C74 +C94 +C114 +C134 +C154 +C174 +C194 +C214 +C234 +C254 +C274 +C294 +C314 +C334
 +C354 +C374 +C394 +C414 <= 0;
-10000000 C15 +C35 +C55 +C75 +C95 +C115 +C135 +C155 +C175 +C195 +C215 +C235 +C255 +C275 +C295 +C315 +C335
 +C355 +C375 +C395 +C415 <= 0;
-10000000 C16 +C36 +C56 +C76 +C96 +C116 +C136 +C156 +C176 +C196 +C216 +C236 +C256 +C276 +C296 +C316 +C336
 +C356 +C376 +C396 +C416 <= 0;
-10000000 C17 +C37 +C57 +C77 +C97 +C117 +C137 +C157 +C177 +C197 +C217 +C237 +C257 +C277 +C297 +C317 +C337
 +C357 +C377 +C397 +C417 <= 0;
-10000000 C18 +C38 +C58 +C78 +C98 +C118 +C138 +C158 +C178 +C198 +C218 +C238 +C258 +C278 +C298 +C318 +C338
 +C358 +C378 +C398 +C418 <= 0;
-10000000 C19 +C39 +C59 +C79 +C99 +C119 +C139 +C159 +C179 +C199 +C219 +C239 +C259 +C279 +C299 +C319 +C339
 +C359 +C379 +C399 +C419 <= 0;
-10000000 C20 +C40 +C60 +C80 +C100 +C120 +C140 +C160 +C180 +C200 +C220 +C240 +C260 +C280 +C300 +C320
 +C340 +C360 +C380 +C400 +C420 <= 0;
+2 C21 +2 C41 +2 C61 +2 C81 +2 C101 +2 C121 +2 C141 +2 C161 +2 C181 +2 C201 +2 C221 +2 C241 +2 C261 +2 C281
 +2 C301 +2 C321 +2 C341 +2 C361 +2 C381 +2 C401 <= 40;
+2 C21 +2 C41 +2 C61 +2 C81 +2 C101 +2 C121 +2 C141 +2 C161 +2 C181 +2 C201 +2 C221 +2 C241 +2 C261 +2 C281
 +2 C301 +2 C321 +2 C341 +2 C361 +2 C381 +2 C401 <= 40;
+2 C22 +2 C42 +2 C62 +2 C82 +2 C102 +2 C122 +2 C142 +2 C162 +2 C182 +2 C202 +2 C222 +2 C242 +2 C262 +2 C282
 +2 C302 +2 C322 +2 C342 +2 C362 +2 C382 +2 C402 <= 40;
+2 C22 +2 C42 +2 C62 +2 C82 +2 C102 +2 C122 +2 C142 +2 C162 +2 C182 +2 C202 +2 C222 +2 C242 +2 C262 +2 C282
 +2 C302 +2 C322 +2 C342 +2 C362 +2 C382 +2 C402 <= 40;
+2 C23 +2 C43 +2 C63 +2 C83 +2 C103 +2 C123 +2 C143 +2 C163 +2 C183 +2 C203 +2 C223 +2 C243 +2 C263 +2 C283
 +2 C303 +2 C323 +2 C343 +2 C363 +2 C383 +2 C403 <= 40;
+2 C23 +2 C43 +2 C63 +2 C83 +2 C103 +2 C123 +2 C143 +2 C163 +2 C183 +2 C203 +2 C223 +2 C243 +2 C263 +2 C283
 +2 C303 +2 C323 +2 C343 +2 C363 +2 C383 +2 C403 <= 40;
+2 C24 +2 C44 +2 C64 +2 C84 +2 C104 +2 C124 +2 C144 +2 C164 +2 C184 +2 C204 +2 C224 +2 C244 +2 C264 +2 C284
 +2 C304 +2 C324 +2 C344 +2 C364 +2 C384 +2 C404 <= 40;
+2 C24 +2 C44 +2 C64 +2 C84 +2 C104 +2 C124 +2 C144 +2 C164 +2 C184 +2 C204 +2 C224 +2 C244 +2 C264 +2 C284
 +2 C304 +2 C324 +2 C344 +2 C364 +2 C384 +2 C404 <= 40;
+2 C25 +2 C45 +2 C65 +2 C85 +2 C105 +2 C125 +2 C145 +2 C165 +2 C185 +2 C205 +2 C225 +2 C245 +2 C265 +2 C285
 +2 C305 +2 C325 +2 C345 +2 C365 +2 C385 +2 C405 <= 40;
+2 C25 +2 C45 +2 C65 +2 C85 +2 C105 +2 C125 +2 C145 +2 C165 +2 C185 +2 C205 +2 C225 +2 C245 +2 C265 +2 C285
 +2 C305 +2 C325 +2 C345 +2 C365 +2 C385 +2 C405 <= 40;
+2 C26 +2 C46 +2 C66 +2 C86 +2 C106 +2 C126 +2 C146 +2 C166 +2 C186 +2 C206 +2 C226 +2 C246 +2 C266 +2 C286
 +2 C306 +2 C326 +2 C346 +2 C366 +2 C386 +2 C406 <= 40;
+2 C26 +2 C46 +2 C66 +2 C86 +2 C106 +2 C126 +2 C146 +2 C166 +2 C186 +2 C206 +2 C226 +2 C246 +2 C266 +2 C286
 +2 C306 +2 C326 +2 C346 +2 C366 +2 C386 +2 C406 <= 40;
+2 C27 +2 C47 +2 C67 +2 C87 +2 C107 +2 C127 +2 C147 +2 C167 +2 C187 +2 C207 +2 C227 +2 C247 +2 C267 +2 C287
 +2 C307 +2 C327 +2 C347 +2 C367 +2 C387 +2 C407 <= 40;
+2 C27 +2 C47 +2 C67 +2 C87 +2 C107 +2 C127 +2 C147 +2 C167 +2 C187 +2 C207 +2 C227 +2 C247 +2 C267 +2 C287
 +2 C307 +2 C327 +2 C347 +2 C367 +2 C387 +2 C407 <= 40;
+2 C28 +2 C48 +2 C68 +2 C88 +2 C108 +2 C128 +2 C148 +2 C168 +2 C188 +2 C208 +2 C228 +2 C248 +2 C268 +2 C288
 +2 C308 +2 C328 +2 C348 +2 C368 +2 C388 +2 C408 <= 40;
+2 C28 +2 C48 +2 C68 +2 C88 +2 C108 +2 C128 +2 C148 +2 C168 +2 C188 +2 C208 +2 C228 +2 C248 +2 C268 +2 C288
 +2 C308 +2 C328 +2 C348 +2 C368 +2 C388 +2 C408 <= 40;
+2 C29 +2 C49 +2 C69 +2 C89 +2 C109 +2 C129 +2 C149 +2 C169 +2 C189 +2 C209 +2 C229 +2 C249 +2 C269 +2 C289
 +2 C309 +2 C329 +2 C349 +2 C369 +2 C389 +2 C409 <= 40;
+2 C29 +2 C49 +2 C69 +2 C89 +2 C109 +2 C129 +2 C149 +2 C169 +2 C189 +2 C209 +2 C229 +2 C249 +2 C269 +2 C289
 +2 C309 +2 C329 +2 C349 +2 C369 +2 C389 +2 C409 <= 40;
+2 C30 +2 C50 +2 C70 +2 C90 +2 C110 +2 C130 +2 C150 +2 C170 +2 C190 +2 C210 +2 C230 +2 C250 +2 C270 +2 C290
 +2 C310 +2 C330 +2 C350 +2 C370 +2 C390 +2 C410 <= 40;
+2 C30 +2 C50 +2 C70 +2 C90 +2 C110 +2 C130 +2 C150 +2 C170 +2 C190 +2 C210 +2 C230 +2 C250 +2 C270 +2 C290
 +2 C310 +2 C330 +2 C350 +2 C370 +2 C390 +2 C410 <= 40;
+2 C31 +2 C51 +2 C71 +2 C91 +2 C111 +2 C131 +2 C151 +2 C171 +2 C191 +2 C211 +2 C231 +2 C251 +2 C271 +2 C291
 +2 C311 +2 C331 +2 C351 +2 C371 +2 C391 +2 C411 <= 40;
+2 C31 +2 C51 +2 C71 +2 C91 +2 C111 +2 C131 +2 C151 +2 C171 +2 C191 +2 C211 +2 C231 +2 C251 +2 C271 +2 C291
 +2 C311 +2 C331 +2 C351 +2 C371 +2 C391 +2 C411 <= 40;
+2 C32 +2 C52 +2 C72 +2 C92 +2 C112 +2 C132 +2 C152 +2 C172 +2 C192 +2 C212 +2 C232 +2 C252 +2 C272 +2 C292
 +2 C312 +2 C332 +2 C352 +2 C372 +2 C392 +2 C412 <= 40;
+2 C32 +2 C52 +2 C72 +2 C92 +2 C112 +2 C132 +2 C152 +2 C172 +2 C192 +2 C212 +2 C232 +2 C252 +2 C272 +2 C292
 +2 C312 +2 C332 +2 C352 +2 C372 +2 C392 +2 C412 <= 40;
+2 C33 +2 C53 +2 C73 +2 C93 +2 C113 +2 C133 +2 C153 +2 C173 +2 C193 +2 C213 +2 C233 +2 C253 +2 C273 +2 C293
 +2 C313 +2 C333 +2 C353 +2 C373 +2 C393 +2 C413 <= 40;
+2 C33 +2 C53 +2 C73 +2 C93 +2 C113 +2 C133 +2 C153 +2 C173 +2 C193 +2 C213 +2 C233 +2 C253 +2 C273 +2 C293
 +2 C313 +2 C333 +2 C353 +2 C373 +2 C393 +2 C413 <= 40;
+2 C34 +2 C54 +2 C74 +2 C94 +2 C114 +2 C134 +2 C154 +2 C174 +2 C194 +2 C214 +2 C234 +2 C254 +2 C274 +2 C294
 +2 C314 +2 C334 +2 C354 +2 C374 +2 C394 +2 C414 <= 40;
+2 C34 +2 C54 +2 C74 +2 C94 +2 C114 +2 C134 +2 C154 +2 C174 +2 C194 +2 C214 +2 C234 +2 C254 +2 C274 +2 C294
 +2 C314 +2 C334 +2 C354 +2 C374 +2 C394 +2 C414 <= 40;
+2 C35 +2 C55 +2 C75 +2 C95 +2 C115 +2 C135 +2 C155 +2 C175 +2 C195 +2 C215 +2 C235 +2 C255 +2 C275 +2 C295
 +2 C315 +2 C335 +2 C355 +2 C375 +2 C395 +2 C415 <= 40;
+2 C35 +2 C55 +2 C75 +2 C95 +2 C115 +2 C135 +2 C155 +2 C175 +2 C195 +2 C215 +2 C235 +2 C255 +2 C275 +2 C295
 +2 C315 +2 C335 +2 C355 +2 C375 +2 C395 +2 C415 <= 40;
+2 C36 +2 C56 +2 C76 +2 C96 +2 C116 +2 C136 +2 C156 +2 C176 +2 C196 +2 C216 +2 C236 +2 C256 +2 C276 +2 C296
 +2 C316 +2 C336 +2 C356 +2 C376 +2 C396 +2 C416 <= 40;
+2 C36 +2 C56 +2 C76 +2 C96 +2 C116 +2 C136 +2 C156 +2 C176 +2 C196 +2 C216 +2 C236 +2 C256 +2 C276 +2 C296
 +2 C316 +2 C336 +2 C356 +2 C376 +2 C396 +2 C416 <= 40;
+2 C37 +2 C57 +2 C77 +2 C97 +2 C117 +2 C137 +2 C157 +2 C177 +2 C197 +2 C217 +2 C237 +2 C257 +2 C277 +2 C297
 +2 C317 +2 C337 +2 C357 +2 C377 +2 C397 +2 C417 <= 40;
+2 C37 +2 C57 +2 C77 +2 C97 +2 C117 +2 C137 +2 C157 +2 C177 +2 C197 +2 C217 +2 C237 +2 C257 +2 C277 +2 C297
 +2 C317 +2 C337 +2 C357 +2 C377 +2 C397 +2 C417 <= 40;
+2 C38 +2 C58 +2 C78 +2 C98 +2 C118 +2 C138 +2 C158 +2 C178 +2 C198 +2 C218 +2 C238 +2 C258 +2 C278 +2 C298
 +2 C318 +2 C338 +2 C358 +2 C378 +2 C398 +2 C418 <= 40;
+2 C38 +2 C58 +2 C78 +2 C98 +2 C118 +2 C138 +2 C158 +2 C178 +2 C198 +2 C218 +2 C238 +2 C258 +2 C278 +2 C298
 +2 C318 +2 C338 +2 C358 +2 C378 +2 C398 +2 C418 <= 40;
+2 C39 +2 C59 +2 C79 +2 C99 +2 C119 +2 C139 +2 C159 +2 C179 +2 C199 +2 C219 +2 C239 +2 C259 +2 C279 +2 C299
 +2 C319 +2 C339 +2 C359 +2 C379 +2 C399 +2 C419 <= 40;
+2 C39 +2 C59 +2 C79 +2 C99 +2 C119 +2 C139 +2 C159 +2 C179 +2 C199 +2 C219 +2 C239 +2 C259 +2 C279 +2 C299
 +2 C319 +2 C339 +2 C359 +2 C379 +2 C399 +2 C419 <= 40;
+2 C40 +2 C60 +2 C80 +2 C100 +2 C120 +2 C140 +2 C160 +2 C180 +2 C200 +2 C220 +2 C240 +2 C260 +2 C280
 +2 C300 +2 C320 +2 C340 +2 C360 +2 C380 +2 C400 +2 C420 <= 40;
+2 C40 +2 C60 +2 C80 +2 C100 +2 C120 +2 C140 +2 C160 +2 C180 +2 C200 +2 C220 +2 C240 +2 C260 +2 C280
 +2 C300 +2 C320 +2 C340 +2 C360 +2 C380 +2 C400 +2 C420 <= 40;

/* Variable bounds */
C1 <= 1;
C2 <= 1;
C3 <= 1;
C4 <= 1;
C5 <= 1;
C6 <= 1;
C7 <= 1;
C8 <= 1;
C9 <= 1;
C10 <= 1;
C11 <= 1;
C12 <= 1;
C13 <= 1;
C14 <= 1;
C15 <= 1;
C16 <= 1;
C17 <= 1;
C18 <= 1;
C19 <= 1;
C20 <= 1;
C21 <= 1;
C22 <= 1;
C23 <= 1;
C24 <= 1;
C25 <= 1;
C26 <= 1;
C27 <= 1;
C28 <= 1;
C29 <= 1;
C30 <= 1;
C31 <= 1;
C32 <= 1;
C33 <= 1;
C34 <= 1;
C35 <= 1;
C36 <= 1;
C37 <= 1;
C38 <= 1;
C39 <= 1;
C40 <= 1;
C41 <= 1;
C42 <= 1;
C43 <= 1;
C44 <= 1;
C45 <= 1;
C46 <= 1;
C47 <= 1;
C48 <= 1;
C49 <= 1;
C50 <= 1;
C51 <= 1;
C52 <= 1;
C53 <= 1;
C54 <= 1;
C55 <= 1;
C56 <= 1;
C57 <= 1;
C58 <= 1;
C59 <= 1;
C60 <= 1;
C61 <= 1;
C62 <= 1;
C63 <= 1;
C64 <= 1;
C65 <= 1;
C66 <= 1;
C67 <= 1;
C68 <= 1;
C69 <= 1;
C70 <= 1;
C71 <= 1;
C72 <= 1;
C73 <= 1;
C74 <= 1;
C75 <= 1;
C76 <= 1;
C77 <= 1;
C78 <= 1;
C79 <= 1;
C80 <= 1;
C81 <= 1;
C82 <= 1;
C83 <= 1;
C84 <= 1;
C85 <= 1;
C86 <= 1;
C87 <= 1;
C88 <= 1;
C89 <= 1;
C90 <= 1;
C91 <= 1;
C92 <= 1;
C93 <= 1;
C94 <= 1;
C95 <= 1;
C96 <= 1;
C97 <= 1;
C98 <= 1;
C99 <= 1;
C100 <= 1;
C101 <= 1;
C102 <= 1;
C103 <= 1;
C104 <= 1;
C105 <= 1;
C106 <= 1;
C107 <= 1;
C108 <= 1;
C109 <= 1;
C110 <= 1;
C111 <= 1;
C112 <= 1;
C113 <= 1;
C114 <= 1;
C115 <= 1;
C116 <= 1;
C117 <= 1;
C118 <= 1;
C119 <= 1;
C120 <= 1;
C121 <= 1;
C122 <= 1;
C123 <= 1;
C124 <= 1;
C125 <= 1;
C126 <= 1;
C127 <= 1;
C128 <= 1;
C129 <= 1;
C130 <= 1;
C131 <= 1;
C132 <= 1;
C133 <= 1;
C134 <= 1;
C135 <= 1;
C136 <= 1;
C137 <= 1;
C138 <= 1;
C139 <= 1;
C140 <= 1;
C141 <= 1;
C142 <= 1;
C143 <= 1;
C144 <= 1;
C145 <= 1;
C146 <= 1;
C147 <= 1;
C148 <= 1;
C149 <= 1;
C150 <= 1;
C151 <= 1;
C152 <= 1;
C153 <= 1;
C154 <= 1;
C155 <= 1;
C156 <= 1;
C157 <= 1;
C158 <= 1;
C159 <= 1;
C160 <= 1;
C161 <= 1;
C162 <= 1;
C163 <= 1;
C164 <= 1;
C165 <= 1;
C166 <= 1;
C167 <= 1;
C168 <= 1;
C169 <= 1;
C170 <= 1;
C171 <= 1;
C172 <= 1;
C173 <= 1;
C174 <= 1;
C175 <= 1;
C176 <= 1;
C177 <= 1;
C178 <= 1;
C179 <= 1;
C180 <= 1;
C181 <= 1;
C182 <= 1;
C183 <= 1;
C184 <= 1;
C185 <= 1;
C186 <= 1;
C187 <= 1;
C188 <= 1;
C189 <= 1;
C190 <= 1;
C191 <= 1;
C192 <= 1;
C193 <= 1;
C194 <= 1;
C195 <= 1;
C196 <= 1;
C197 <= 1;
C198 <= 1;
C199 <= 1;
C200 <= 1;
C201 <= 1;
C202 <= 1;
C203 <= 1;
C204 <= 1;
C205 <= 1;
C206 <= 1;
C207 <= 1;
C208 <= 1;
C209 <= 1;
C210 <= 1;
C211 <= 1;
C212 <= 1;
C213 <= 1;
C214 <= 1;
C215 <= 1;
C216 <= 1;
C217 <= 1;
C218 <= 1;
C219 <= 1;
C220 <= 1;
C221 <= 1;
C222 <= 1;
C223 <= 1;
C224 <= 1;
C225 <= 1;
C226 <= 1;
C227 <= 1;
C228 <= 1;
C229 <= 1;
C230 <= 1;
C231 <= 1;
C232 <= 1;
C233 <= 1;
C234 <= 1;
C235 <= 1;
C236 <= 1;
C237 <= 1;
C238 <= 1;
C239 <= 1;
C240 <= 1;
C241 <= 1;
C242 <= 1;
C243 <= 1;
C244 <= 1;
C245 <= 1;
C246 <= 1;
C247 <= 1;
C248 <= 1;
C249 <= 1;
C250 <= 1;
C251 <= 1;
C252 <= 1;
C253 <= 1;
C254 <= 1;
C255 <= 1;
C256 <= 1;
C257 <= 1;
C258 <= 1;
C259 <= 1;
C260 <= 1;
C261 <= 1;
C262 <= 1;
C263 <= 1;
C264 <= 1;
C265 <= 1;
C266 <= 1;
C267 <= 1;
C268 <= 1;
C269 <= 1;
C270 <= 1;
C271 <= 1;
C272 <= 1;
C273 <= 1;
C274 <= 1;
C275 <= 1;
C276 <= 1;
C277 <= 1;
C278 <= 1;
C279 <= 1;
C280 <= 1;
C281 <= 1;
C282 <= 1;
C283 <= 1;
C284 <= 1;
C285 <= 1;
C286 <= 1;
C287 <= 1;
C288 <= 1;
C289 <= 1;
C290 <= 1;
C291 <= 1;
C292 <= 1;
C293 <= 1;
C294 <= 1;
C295 <= 1;
C296 <= 1;
C297 <= 1;
C298 <= 1;
C299 <= 1;
C300 <= 1;
C301 <= 1;
C302 <= 1;
C303 <= 1;
C304 <= 1;
C305 <= 1;
C306 <= 1;
C307 <= 1;
C308 <= 1;
C309 <= 1;
C310 <= 1;
C311 <= 1;
C312 <= 1;
C313 <= 1;
C314 <= 1;
C315 <= 1;
C316 <= 1;
C317 <= 1;
C318 <= 1;
C319 <= 1;
C320 <= 1;
C321 <= 1;
C322 <= 1;
C323 <= 1;
C324 <= 1;
C325 <= 1;
C326 <= 1;
C327 <= 1;
C328 <= 1;
C329 <= 1;
C330 <= 1;
C331 <= 1;
C332 <= 1;
C333 <= 1;
C334 <= 1;
C335 <= 1;
C336 <= 1;
C337 <= 1;
C338 <= 1;
C339 <= 1;
C340 <= 1;
C341 <= 1;
C342 <= 1;
C343 <= 1;
C344 <= 1;
C345 <= 1;
C346 <= 1;
C347 <= 1;
C348 <= 1;
C349 <= 1;
C350 <= 1;
C351 <= 1;
C352 <= 1;
C353 <= 1;
C354 <= 1;
C355 <= 1;
C356 <= 1;
C357 <= 1;
C358 <= 1;
C359 <= 1;
C360 <= 1;
C361 <= 1;
C362 <= 1;
C363 <= 1;
C364 <= 1;
C365 <= 1;
C366 <= 1;
C367 <= 1;
C368 <= 1;
C369 <= 1;
C370 <= 1;
C371 <= 1;
C372 <= 1;
C373 <= 1;
C374 <= 1;
C375 <= 1;
C376 <= 1;
C377 <= 1;
C378 <= 1;
C379 <= 1;
C380 <= 1;
C381 <= 1;
C382 <= 1;
C383 <= 1;
C384 <= 1;
C385 <= 1;
C386 <= 1;
C387 <= 1;
C388 <= 1;
C389 <= 1;
C390 <= 1;
C391 <= 1;
C392 <= 1;
C393 <= 1;
C394 <= 1;
C395 <= 1;
C396 <= 1;
C397 <= 1;
C398 <= 1;
C399 <= 1;
C400 <= 1;
C401 <= 1;
C402 <= 1;
C403 <= 1;
C404 <= 1;
C405 <= 1;
C406 <= 1;
C407 <= 1;
C408 <= 1;
C409 <= 1;
C410 <= 1;
C411 <= 1;
C412 <= 1;
C413 <= 1;
C414 <= 1;
C415 <= 1;
C416 <= 1;
C417 <= 1;
C418 <= 1;
C419 <= 1;
C420 <= 1;

/* Integer definitions */
int C1,C2,C3,C4,C5,C6,C7,C8,C9,C10,C11,C12,C13,C14,C15,C16,C17,C18,C19,C20,C21,C22,C23,C24,C25,C26,C27,C28,C29,C30,C31,C32,C33,C34,C35,C36,C37,C38,C39,C40,C41,C42,C43,C44,C45,C46,C47,C48,C49,C50,C51,C52,C53,C54,C55,C56,C57,C58,C59,C60,C61,C62,C63,C64,C65,C66,C67,C68,C69,C70,C71,C72,C73,C74,C75,C76,C77,C78,C79,C80,C81,C82,C83,C84,C85,C86,C87,C88,C89,C90,C91,C92,C93,C94,C95,C96,C97,C98,C99,C100,C101,C102,C103,C104,C105,C106,C107,C108,C109,C110,C111,C112,C113,C114,C115,C116,C117,C118,C119,C120,C121,C122,C123,C124,C125,C126,C127,C128,C129,C130,C131,C132,C133,C134,C135,C136,C137,C138,C139,C140,C141,C142,C143,C144,C145,C146,C147,C148,C149,C150,C151,C152,C153,C154,C155,C156,C157,C158,C159,C160,C161,C162,C163,C164,C165,C166,C167,C168,C169,C170,C171,C172,C173,C174,C175,C176,C177,C178,C179,C180,C181,C182,C183,C184,C185,C186,C187,C188,C189,C190,C191,C192,C193,C194,C195,C196,C197,C198,C199,C200,C201,C202,C203,C204,C205,C206,C207,C208,C209,C210,C211,C212,C213,C214,C215,C216,C217,C218,C219,C220,C221,C222,C223,C224,C225,C226,C227,C228,C229,C230,C231,C232,C233,C234,C235,C236,C237,C238,C239,C240,C241,C242,C243,C244,C245,C246,C247,C248,C249,C250,C251,C252,C253,C254,C255,C256,C257,C258,C259,C260,C261,C262,C263,C264,C265,C266,C267,C268,C269,C270,C271,C272,C273,C274,C275,C276,C277,C278,C279,C280,C281,C282,C283,C284,C285,C286,C287,C288,C289,C290,C291,C292,C293,C294,C295,C296,C297,C298,C299,C300,C301,C302,C303,C304,C305,C306,C307,C308,C309,C310,C311,C312,C313,C314,C315,C316,C317,C318,C319,C320,C321,C322,C323,C324,C325,C326,C327,C328,C329,C330,C331,C332,C333,C334,C335,C336,C337,C338,C339,C340,C341,C342,C343,C344,C345,C346,C347,C348,C349,C350,C351,C352,C353,C354,C355,C356,C357,C358,C359,C360,C361,C362,C363,C364,C365,C366,C367,C368,C369,C370,C371,C372,C373,C374,C375,C376,C377,C378,C379,C380,C381,C382,C383,C384,C385,C386,C387,C388,C389,C390,C391,C392,C393,C394,C395,C396,C397,C398,C399,C400,C401,C402,C403,C404,C405,C406,C407,C408,C409,C410,C411,C412,C413,C414,C415,C416,C417,C418,C419,C420;
